unsat
((set-logic NIA)
(declare-fun k!2 () Int)
(declare-fun c!3 () Int)
(declare-fun n!0 () Int)
(declare-fun m!1 () Int)
(proof
(let ((?x781 (* 5 k!2)))
 (let ((?x796 (* 18 c!3)))
 (let ((?x797 (* (- 9) n!0)))
 (let ((?x134 (* k!2 k!2)))
 (let ((?x798 (* (- 1) ?x134)))
 (let ((?x130 (* n!0 c!3)))
 (let ((?x869 (* 9 ?x130)))
 (let ((?x885 (+ ?x869 ?x798 ?x797 ?x796 ?x781)))
 (let (($x884 (<= ?x885 4)))
 (let (($x386 (= ?x885 4)))
 (let ((?x337 (* (- 1) m!1)))
 (let ((?x381 (* (- 1) k!2)))
 (let ((?x202 (* n!0 n!0)))
 (let ((?x358 (* 3 ?x202)))
 (let ((?x536 (* 9 n!0)))
 (let ((?x810 (* m!1 m!1)))
 (let ((?x777 (* (- 1) ?x810)))
 (let ((?x809 (* k!2 m!1)))
 (let ((?x779 (* (- 2) ?x809)))
 (let ((?x331 (* 5 m!1)))
 (let ((?x807 (* 32 k!2)))
 (let ((?x806 (* 27 c!3)))
 (let ((?x498 (+ ?x869 ?x798 ?x797 ?x806 ?x807 ?x331 ?x779 ?x777 (* 9 (* n!0 k!2)))))
 (let ((?x340 (+ (* 6 n!0) ?x337)))
 (let (($x357 (= ?x340 (- 6))))
 (let (($x367 (not $x357)))
 (let ((?x557 (* 2 ?x809)))
 (let ((?x352 (* (- 5) m!1)))
 (let ((?x547 (* (- 32) k!2)))
 (let ((?x546 (* (- 27) c!3)))
 (let ((?x126 (+ 13 (* (- 9) ?x130) ?x134 ?x536 ?x546 ?x547 ?x352 ?x557 ?x810 (* (- 9) (* n!0 k!2)))))
 (let ((?x1053 (* k!2 k!2 m!1)))
 (let ((?x815 (* 68 ?x1053)))
 (let ((?x918 (* c!3 c!3)))
 (let ((?x919 (* 324 ?x918)))
 (let ((?x864 (* c!3 k!2 m!1)))
 (let ((?x866 (* 132 ?x864)))
 (let ((?x837 (* c!3 c!3 m!1)))
 (let ((?x833 (* 66 ?x837)))
 (let ((?x816 (* k!2 k!2 k!2)))
 (let ((?x192 (* (- 42) ?x816)))
 (let ((?x422 (* 12 ?x810)))
 (let ((?x198 (* 24 ?x809)))
 (let ((?x347 (* 2 (* c!3 c!3 m!1 m!1))))
 (let ((?x510 (* c!3 k!2)))
 (let ((?x1052 (* 648 ?x510)))
 (let ((?x451 (* 4 (* k!2 m!1 m!1))))
 (let ((?x414 (* 2 (* m!1 m!1 m!1))))
 (let ((?x399 (* 4 (* c!3 k!2 m!1 m!1))))
 (let ((?x457 (* (- 14) (* c!3 k!2 k!2 m!1))))
 (let ((?x191 (* c!3 c!3 k!2)))
 (let ((?x550 (* (- 42) ?x191)))
 (let ((?x294 (* 2 (* n!0 m!1 m!1 m!1))))
 (let ((?x188 (* 4 (* n!0 k!2 m!1 m!1))))
 (let ((?x199 (* (- 7) (* k!2 k!2 k!2 m!1))))
 (let ((?x355 (* 2 (* k!2 k!2 m!1 m!1))))
 (let ((?x159 (* (- 7) (* c!3 c!3 k!2 m!1))))
 (let ((?x136 (* c!3 k!2 k!2)))
 (let ((?x942 (* (- 84) ?x136)))
 (let ((?x863 (* 336 ?x134)))
 (let ((?x236 (+ (* 216 (* n!0 c!3 k!2 m!1)) ?x863 ?x942 ?x159 (* 110 (* n!0 k!2 k!2 m!1)) ?x355 ?x199 ?x188 ?x294 (* 24 (* n!0 k!2 m!1)) (* 12 (* n!0 m!1 m!1)) ?x550 (* 18 (* n!0 c!3 k!2 m!1 m!1)) (* 9 (* n!0 k!2 k!2 m!1 m!1)) (* 9 (* n!0 c!3 c!3 m!1 m!1)) ?x457 (* 336 (* n!0 k!2 k!2)) (* 108 (* n!0 c!3 c!3 m!1)) ?x399 ?x414 ?x451 (* 648 (* n!0 c!3 k!2)) (* 324 (* n!0 c!3 c!3)) ?x1052 ?x347 ?x198 ?x422 ?x192 ?x833 ?x866 ?x919 ?x815)))
 (let ((?x141 (* ?x236 ?x126)))
 (let ((?x876 (* n!0 k!2)))
 (let ((?x204 (* (- 3) c!3)))
 (let ((?x203 (* 2 n!0)))
 (let (($x349 (or (not (= (+ ?x203 (* n!0 m!1) ?x204 (* (- 3) k!2) ?x876) (- 2))) (not (= ?x141 0)) $x367 (not (= ?x498 13)) (not (= (+ ?x536 ?x358 ?x381 ?x337) (- 6))))))
 (let ((?x319 (+ (* 3 n!0) ?x358 ?x381)))
 (let (($x360 (= ?x319 0)))
 (let ((?x207 (+ ?x203 ?x204 ?x381 ?x876)))
 (let (($x208 (= ?x207 0)))
 (let (($x350 (and $x357 $x386 $x208 $x360 $x349)))
 (let ((?x470 (+ 13 ?x546 ?x547 ?x352 ?x536 ?x134 (* (- 9) (* k!2 n!0)) (* (- 9) (* c!3 n!0)) ?x557 ?x810)))
 (let ((?x502 (+ ?x863 ?x866 (* 324 (* c!3 c!3 n!0)) (* 336 (* k!2 k!2 n!0)) ?x1052 (* 216 (* c!3 k!2 m!1 n!0)) ?x815 ?x192 (* 108 (* c!3 c!3 m!1 n!0)) ?x919 ?x833 (* 648 (* c!3 k!2 n!0)) ?x198 ?x422 ?x942 ?x550 ?x159 ?x457 ?x199 ?x347 ?x399 ?x355 (* 9 (* c!3 c!3 m!1 m!1 n!0)) (* 18 (* c!3 k!2 m!1 m!1 n!0)) (* 9 (* k!2 k!2 m!1 m!1 n!0)) (* 110 (* k!2 k!2 m!1 n!0)) (* 4 (* k!2 m!1 m!1 n!0)) (* 2 (* m!1 m!1 m!1 n!0)) ?x414 (* 24 (* k!2 m!1 n!0)) ?x451 (* 12 (* m!1 m!1 n!0)))))
 (let ((?x802 (* k!2 n!0)))
 (let ((?x800 (* (- 1) ?x802)))
 (let ((?x778 (* (- 2) n!0)))
 (let ((?x780 (* 3 c!3)))
 (let (($x854 (= (+ ?x780 (* 3 k!2) ?x778 ?x800 (* (- 1) (* m!1 n!0))) 2)))
 (let ((?x142 (* c!3 n!0)))
 (let ((?x799 (* 9 ?x142)))
 (let (($x812 (= (+ ?x806 ?x807 ?x331 ?x797 ?x798 (* 9 ?x802) ?x799 ?x779 ?x777) 13)))
 (let (($x450 (or (not (= (+ m!1 (* (- 6) n!0)) 6)) (not $x812) (not $x854) (not (= (* ?x502 ?x470) 0)) (not (= (+ k!2 m!1 ?x797 (* (- 3) ?x202)) 6)))))
 (let (($x117 (= (+ m!1 (* (- 6) n!0)) 6)))
 (let (($x452 (and $x117 (= (+ ?x796 ?x781 ?x797 ?x798 ?x799) 4) (= (+ ?x780 k!2 ?x778 ?x800) 0) (= (+ k!2 (* (- 3) n!0) (* (- 3) ?x202)) 0) $x450)))
 (let (($x981 (exists ((c Int) (k Int) (m Int) (n Int) )(! (let (($x1075 (not (= (+ k m (* (- 9) n) (* (- 3) (* n n))) 6))))
 (let ((?x488 (* m m)))
 (let ((?x46 (* k k)))
 (let ((?x45 (* 9 n)))
 (let ((?x454 (* (- 5) m)))
 (let ((?x509 (+ 13 (* (- 27) c) (* (- 32) k) ?x454 ?x45 ?x46 (* (- 9) (* k n)) (* (- 9) (* c n)) (* 2 (* k m)) ?x488)))
 (let ((?x754 (* 2 (* m m m n))))
 (let ((?x714 (* 9 (* k k m m n))))
 (let ((?x708 (* 9 (* c c m m n))))
 (let ((?x628 (* (- 7) (* k k k m))))
 (let ((?x618 (* (- 7) (* c c k m))))
 (let ((?x1000 (+ (* 336 ?x46) (* 132 (* c k m)) (* 324 (* c c n)) (* 336 (* k k n)) (* 648 (* c k)) (* 216 (* c k m n)) (* 68 (* k k m)) (* (- 42) (* k k k)) (* 108 (* c c m n)) (* 324 (* c c)) (* 66 (* c c m)) (* 648 (* c k n)) (* 24 (* k m)) (* 12 ?x488) (* (- 84) (* c k k)) (* (- 42) (* c c k)) ?x618 (* (- 14) (* c k k m)) ?x628 (* 2 (* c c m m)) (* 4 (* c k m m)) (* 2 (* k k m m)) ?x708 (* 18 (* c k m m n)) ?x714 (* 110 (* k k m n)) (* 4 (* k m m n)) ?x754 (* 2 (* m m m)) (* 24 (* k m n)) (* 4 (* k m m)) (* 12 (* m m n)))))
 (let ((?x52 (* k n)))
 (let ((?x265 (* (- 1) ?x52)))
 (let ((?x264 (* (- 2) n)))
 (let ((?x262 (* 3 c)))
 (let (($x608 (= (+ ?x262 (* 3 k) ?x264 ?x265 (* (- 1) (* m n))) 2)))
 (let (($x616 (not $x608)))
 (let ((?x160 (* c n)))
 (let ((?x162 (* 9 ?x160)))
 (let ((?x225 (* (- 1) ?x46)))
 (let ((?x224 (* (- 9) n)))
 (let ((?x437 (* 5 m)))
 (let ((?x525 (+ (* 27 c) (* 32 k) ?x437 ?x224 ?x225 (* 9 ?x52) ?x162 (* (- 2) (* k m)) (* (- 1) ?x488))))
 (let (($x529 (not (= ?x525 13))))
 (let (($x145 (= (+ m (* (- 6) n)) 6)))
 (let (($x363 (not $x145)))
 (let (($x303 (= (+ k (* (- 3) n) (* (- 3) (* n n))) 0)))
 (let (($x267 (= (+ ?x262 k ?x264 ?x265) 0)))
 (let (($x222 (= (+ (* 18 c) (* 5 k) ?x224 ?x225 ?x162) 4)))
 (and $x145 $x222 $x267 $x303 (or $x363 $x529 $x616 (not (= (* ?x1000 ?x509) 0)) $x1075)))))))))))))))))))))))))))))))) :qid k!38))
 ))
 (let (($x246 (exists ((c Int) (k Int) (m Int) (n Int) )(! (let ((?x224 (* (- 9) n)))
 (let ((?x437 (* 5 m)))
 (let ((?x37 (* 18 c)))
 (let ((?x169 (+ ?x37 (* 23 k) (* 9 (* (+ 1 n) (+ c k))) ?x437 ?x224 (* (- 1) (* (+ k m) (+ k m))))))
 (let ((?x264 (* (- 2) n)))
 (let ((?x262 (* 3 c)))
 (let ((?x511 (+ ?x262 (* 4 k) (* (- 1) (* (+ 1 n) (+ k m))) m ?x264)))
 (let (($x145 (= (+ m (* (- 6) n)) 6)))
 (let (($x363 (not $x145)))
 (let ((?x61 (* 3 n)))
 (let ((?x791 (* (- 1) m)))
 (let ((?x542 (* (- 1) k)))
 (let (($x252 (= (+ (* 3 (* (+ 1 n) (+ 1 n))) ?x542 ?x791 ?x61) (- 3))))
 (let (($x260 (not $x252)))
 (let ((?x74 (+ k m)))
 (let ((?x80 (* ?x74 ?x74)))
 (let ((?x45 (* 9 n)))
 (let ((?x454 (* (- 5) m)))
 (let ((?x71 (+ c k)))
 (let ((?x577 (+ 1 n)))
 (let ((?x431 (* ?x577 ?x71)))
 (let ((?x591 (* (- 9) ?x431)))
 (let ((?x562 (* (- 23) k)))
 (let ((?x469 (* (- 18) c)))
 (let ((?x242 (+ (* (- 7) (* (+ 6 m) ?x74 ?x71 ?x71)) (* 9 (* ?x577 (+ 6 m) (+ 6 m) ?x71 ?x71)) (* 2 (* ?x577 (+ 6 m) ?x74 ?x74)))))
 (let (($x243 (not (= (* ?x242 (+ 13 ?x469 ?x562 ?x591 ?x454 ?x45 ?x80)) 0))))
 (let (($x345 (= (+ (* 3 (* n n)) ?x542 ?x61) 0)))
 (let ((?x46 (* k k)))
 (let ((?x225 (* (- 1) ?x46)))
 (let ((?x41 (* 5 k)))
 (and $x145 (= (+ ?x37 (* 9 (* n c)) ?x41 ?x224 ?x225) 4) (= (+ ?x262 (* (- 1) (* n k)) k ?x264) 0) $x345 (or $x243 $x260 $x363 (not (= ?x511 2)) (not (= ?x169 13)))))))))))))))))))))))))))))))))) :qid k!38))
 ))
 (let ((?x983 (lambda ((c Int) (k Int) (m Int) (n Int) )(let (($x1075 (not (= (+ k m (* (- 9) n) (* (- 3) (* n n))) 6))))
 (let ((?x488 (* m m)))
 (let ((?x46 (* k k)))
 (let ((?x45 (* 9 n)))
 (let ((?x454 (* (- 5) m)))
 (let ((?x509 (+ 13 (* (- 27) c) (* (- 32) k) ?x454 ?x45 ?x46 (* (- 9) (* k n)) (* (- 9) (* c n)) (* 2 (* k m)) ?x488)))
 (let ((?x754 (* 2 (* m m m n))))
 (let ((?x714 (* 9 (* k k m m n))))
 (let ((?x708 (* 9 (* c c m m n))))
 (let ((?x628 (* (- 7) (* k k k m))))
 (let ((?x618 (* (- 7) (* c c k m))))
 (let ((?x1000 (+ (* 336 ?x46) (* 132 (* c k m)) (* 324 (* c c n)) (* 336 (* k k n)) (* 648 (* c k)) (* 216 (* c k m n)) (* 68 (* k k m)) (* (- 42) (* k k k)) (* 108 (* c c m n)) (* 324 (* c c)) (* 66 (* c c m)) (* 648 (* c k n)) (* 24 (* k m)) (* 12 ?x488) (* (- 84) (* c k k)) (* (- 42) (* c c k)) ?x618 (* (- 14) (* c k k m)) ?x628 (* 2 (* c c m m)) (* 4 (* c k m m)) (* 2 (* k k m m)) ?x708 (* 18 (* c k m m n)) ?x714 (* 110 (* k k m n)) (* 4 (* k m m n)) ?x754 (* 2 (* m m m)) (* 24 (* k m n)) (* 4 (* k m m)) (* 12 (* m m n)))))
 (let ((?x52 (* k n)))
 (let ((?x265 (* (- 1) ?x52)))
 (let ((?x264 (* (- 2) n)))
 (let ((?x262 (* 3 c)))
 (let (($x608 (= (+ ?x262 (* 3 k) ?x264 ?x265 (* (- 1) (* m n))) 2)))
 (let (($x616 (not $x608)))
 (let ((?x160 (* c n)))
 (let ((?x162 (* 9 ?x160)))
 (let ((?x225 (* (- 1) ?x46)))
 (let ((?x224 (* (- 9) n)))
 (let ((?x437 (* 5 m)))
 (let ((?x525 (+ (* 27 c) (* 32 k) ?x437 ?x224 ?x225 (* 9 ?x52) ?x162 (* (- 2) (* k m)) (* (- 1) ?x488))))
 (let (($x529 (not (= ?x525 13))))
 (let (($x145 (= (+ m (* (- 6) n)) 6)))
 (let (($x363 (not $x145)))
 (let (($x303 (= (+ k (* (- 3) n) (* (- 3) (* n n))) 0)))
 (let (($x267 (= (+ ?x262 k ?x264 ?x265) 0)))
 (let (($x222 (= (+ (* 18 c) (* 5 k) ?x224 ?x225 ?x162) 4)))
 (let (($x1069 (and $x145 $x222 $x267 $x303 (or $x363 $x529 $x616 (not (= (* ?x1000 ?x509) 0)) $x1075))))
 (let ((?x37 (* 18 c)))
 (let ((?x169 (+ ?x37 (* 23 k) (* 9 (* (+ 1 n) (+ c k))) ?x437 ?x224 (* (- 1) (* (+ k m) (+ k m))))))
 (let ((?x511 (+ ?x262 (* 4 k) (* (- 1) (* (+ 1 n) (+ k m))) m ?x264)))
 (let ((?x61 (* 3 n)))
 (let ((?x791 (* (- 1) m)))
 (let ((?x542 (* (- 1) k)))
 (let (($x252 (= (+ (* 3 (* (+ 1 n) (+ 1 n))) ?x542 ?x791 ?x61) (- 3))))
 (let (($x260 (not $x252)))
 (let ((?x74 (+ k m)))
 (let ((?x80 (* ?x74 ?x74)))
 (let ((?x71 (+ c k)))
 (let ((?x577 (+ 1 n)))
 (let ((?x431 (* ?x577 ?x71)))
 (let ((?x591 (* (- 9) ?x431)))
 (let ((?x562 (* (- 23) k)))
 (let ((?x469 (* (- 18) c)))
 (let ((?x242 (+ (* (- 7) (* (+ 6 m) ?x74 ?x71 ?x71)) (* 9 (* ?x577 (+ 6 m) (+ 6 m) ?x71 ?x71)) (* 2 (* ?x577 (+ 6 m) ?x74 ?x74)))))
 (let (($x243 (not (= (* ?x242 (+ 13 ?x469 ?x562 ?x591 ?x454 ?x45 ?x80)) 0))))
 (let (($x345 (= (+ (* 3 (* n n)) ?x542 ?x61) 0)))
 (let (($x376 (= (+ ?x37 (* 9 (* n c)) (* 5 k) ?x224 ?x225) 4)))
 (let (($x289 (and $x145 $x376 (= (+ ?x262 (* (- 1) (* n k)) k ?x264) 0) $x345 (or $x243 $x260 $x363 (not (= ?x511 2)) (not (= ?x169 13))))))
 (rewrite (= $x289 $x1069)))))))))))))))))))))))))))))))))))))))))))))))))))))))
 ))
 (let (($x417 (exists ((c Int) (k Int) (m Int) (n Int) )(! (let ((?x74 (+ k m)))
 (let ((?x80 (* ?x74 ?x74)))
 (let ((?x45 (* 9 n)))
 (let ((?x454 (* (- 5) m)))
 (let ((?x71 (+ c k)))
 (let ((?x577 (+ 1 n)))
 (let ((?x431 (* ?x577 ?x71)))
 (let ((?x591 (* (- 9) ?x431)))
 (let ((?x562 (* (- 23) k)))
 (let ((?x469 (* (- 18) c)))
 (let (($x145 (= (+ m (* (- 6) n)) 6)))
 (let (($x363 (not $x145)))
 (let ((?x61 (* 3 n)))
 (let ((?x791 (* (- 1) m)))
 (let ((?x542 (* (- 1) k)))
 (let (($x260 (not (= (+ (* 3 (* ?x577 ?x577)) ?x542 ?x791 ?x61) (- 3)))))
 (let ((?x56 (* 2 n)))
 (let ((?x478 (* ?x577 ?x74)))
 (let ((?x501 (* (- 3) c)))
 (let ((?x242 (+ (* (- 7) (* (+ 6 m) ?x74 ?x71 ?x71)) (* 9 (* ?x577 (+ 6 m) (+ 6 m) ?x71 ?x71)) (* 2 (* ?x577 (+ 6 m) ?x74 ?x74)))))
 (let (($x243 (not (= (* ?x242 (+ 13 ?x469 ?x562 ?x591 ?x454 ?x45 ?x80)) 0))))
 (let (($x305 (or $x243 (not (= (+ ?x501 (* (- 4) k) ?x478 ?x791 ?x56) (- 2))) $x260 $x363 (not (= (+ ?x469 ?x562 ?x591 ?x454 ?x45 ?x80) (- 13))))))
 (let (($x345 (= (+ (* 3 (* n n)) ?x542 ?x61) 0)))
 (let (($x489 (= (+ ?x469 (* (- 9) (* n c)) (* (- 5) k) ?x45 (* k k)) (- 4))))
 (and $x145 $x489 (= (+ ?x501 (* n k) ?x542 ?x56) 0) $x345 $x305))))))))))))))))))))))))) :qid k!38))
 ))
 (let ((?x182 (lambda ((c Int) (k Int) (m Int) (n Int) )(let ((?x224 (* (- 9) n)))
 (let ((?x437 (* 5 m)))
 (let ((?x37 (* 18 c)))
 (let ((?x169 (+ ?x37 (* 23 k) (* 9 (* (+ 1 n) (+ c k))) ?x437 ?x224 (* (- 1) (* (+ k m) (+ k m))))))
 (let ((?x264 (* (- 2) n)))
 (let ((?x262 (* 3 c)))
 (let ((?x511 (+ ?x262 (* 4 k) (* (- 1) (* (+ 1 n) (+ k m))) m ?x264)))
 (let (($x145 (= (+ m (* (- 6) n)) 6)))
 (let (($x363 (not $x145)))
 (let ((?x61 (* 3 n)))
 (let ((?x791 (* (- 1) m)))
 (let ((?x542 (* (- 1) k)))
 (let (($x252 (= (+ (* 3 (* (+ 1 n) (+ 1 n))) ?x542 ?x791 ?x61) (- 3))))
 (let (($x260 (not $x252)))
 (let ((?x74 (+ k m)))
 (let ((?x80 (* ?x74 ?x74)))
 (let ((?x45 (* 9 n)))
 (let ((?x454 (* (- 5) m)))
 (let ((?x71 (+ c k)))
 (let ((?x577 (+ 1 n)))
 (let ((?x431 (* ?x577 ?x71)))
 (let ((?x591 (* (- 9) ?x431)))
 (let ((?x562 (* (- 23) k)))
 (let ((?x469 (* (- 18) c)))
 (let ((?x242 (+ (* (- 7) (* (+ 6 m) ?x74 ?x71 ?x71)) (* 9 (* ?x577 (+ 6 m) (+ 6 m) ?x71 ?x71)) (* 2 (* ?x577 (+ 6 m) ?x74 ?x74)))))
 (let (($x243 (not (= (* ?x242 (+ 13 ?x469 ?x562 ?x591 ?x454 ?x45 ?x80)) 0))))
 (let (($x345 (= (+ (* 3 (* n n)) ?x542 ?x61) 0)))
 (let ((?x46 (* k k)))
 (let ((?x225 (* (- 1) ?x46)))
 (let ((?x41 (* 5 k)))
 (let (($x289 (and $x145 (= (+ ?x37 (* 9 (* n c)) ?x41 ?x224 ?x225) 4) (= (+ ?x262 (* (- 1) (* n k)) k ?x264) 0) $x345 (or $x243 $x260 $x363 (not (= ?x511 2)) (not (= ?x169 13))))))
 (let ((?x56 (* 2 n)))
 (let ((?x478 (* ?x577 ?x74)))
 (let ((?x501 (* (- 3) c)))
 (let (($x305 (or $x243 (not (= (+ ?x501 (* (- 4) k) ?x478 ?x791 ?x56) (- 2))) $x260 $x363 (not (= (+ ?x469 ?x562 ?x591 ?x454 ?x45 ?x80) (- 13))))))
 (let (($x489 (= (+ ?x469 (* (- 9) (* n c)) (* (- 5) k) ?x45 ?x46) (- 4))))
 (let (($x288 (and $x145 $x489 (= (+ ?x501 (* n k) ?x542 ?x56) 0) $x345 $x305)))
 (rewrite (= $x288 $x289))))))))))))))))))))))))))))))))))))))))
 ))
 (let (($x110 (exists ((c Int) (k Int) (m Int) (n Int) )(! (let ((?x66 (+ n 1)))
 (let ((?x100 (+ m 6)))
 (let ((?x74 (+ k m)))
 (let ((?x104 (+ (* (- 7) (+ c k) (+ c k) ?x74 ?x100) (* 9 (+ c k) (+ c k) ?x100 ?x100 ?x66) (* 2 ?x74 ?x74 ?x100 ?x66))))
 (let ((?x80 (* ?x74 ?x74)))
 (let ((?x78 (- (- (- 4 (* 18 (+ c k))) (* 9 (+ c k) ?x66)) (* 5 ?x74))))
 (let ((?x81 (+ ?x78 (* 9 ?x66) ?x80)))
 (let ((?x89 (+ (- (+ (* (- 3) (+ c k)) (* ?x74 ?x66)) ?x74) (* 2 ?x66))))
 (let (($x108 (or (not (= (- (+ (- 6) m 6) (* 6 ?x66)) 0)) (not (= ?x81 0)) (not (= ?x89 0)) (not (= (+ (- (* 3 ?x66 ?x66) ?x74) (* 3 ?x66)) 0)) (not (= (* ?x81 ?x104) 0)))))
 (let (($x58 (= (+ (- (+ (* (- 3) c) (* k n)) k) (* 2 n)) 0)))
 (let ((?x46 (* k k)))
 (let ((?x45 (* 9 n)))
 (let ((?x41 (* 5 k)))
 (let ((?x47 (+ (- (- (- 4 (* 18 c)) (* 9 c n)) ?x41) ?x45 ?x46)))
 (and (= (- (+ (- 6) m) (* 6 n)) 0) (= ?x47 0) $x58 (= (+ (- (* 3 n n) k) (* 3 n)) 0) $x108))))))))))))))) :qid k!38))
 ))
 (let ((?x419 (lambda ((c Int) (k Int) (m Int) (n Int) )(let ((?x74 (+ k m)))
 (let ((?x80 (* ?x74 ?x74)))
 (let ((?x45 (* 9 n)))
 (let ((?x454 (* (- 5) m)))
 (let ((?x71 (+ c k)))
 (let ((?x577 (+ 1 n)))
 (let ((?x431 (* ?x577 ?x71)))
 (let ((?x591 (* (- 9) ?x431)))
 (let ((?x562 (* (- 23) k)))
 (let ((?x469 (* (- 18) c)))
 (let (($x145 (= (+ m (* (- 6) n)) 6)))
 (let (($x363 (not $x145)))
 (let ((?x61 (* 3 n)))
 (let ((?x791 (* (- 1) m)))
 (let ((?x542 (* (- 1) k)))
 (let (($x260 (not (= (+ (* 3 (* ?x577 ?x577)) ?x542 ?x791 ?x61) (- 3)))))
 (let ((?x56 (* 2 n)))
 (let ((?x478 (* ?x577 ?x74)))
 (let ((?x501 (* (- 3) c)))
 (let ((?x242 (+ (* (- 7) (* (+ 6 m) ?x74 ?x71 ?x71)) (* 9 (* ?x577 (+ 6 m) (+ 6 m) ?x71 ?x71)) (* 2 (* ?x577 (+ 6 m) ?x74 ?x74)))))
 (let (($x243 (not (= (* ?x242 (+ 13 ?x469 ?x562 ?x591 ?x454 ?x45 ?x80)) 0))))
 (let (($x305 (or $x243 (not (= (+ ?x501 (* (- 4) k) ?x478 ?x791 ?x56) (- 2))) $x260 $x363 (not (= (+ ?x469 ?x562 ?x591 ?x454 ?x45 ?x80) (- 13))))))
 (let (($x345 (= (+ (* 3 (* n n)) ?x542 ?x61) 0)))
 (let (($x489 (= (+ ?x469 (* (- 9) (* n c)) (* (- 5) k) ?x45 (* k k)) (- 4))))
 (let (($x288 (and $x145 $x489 (= (+ ?x501 (* n k) ?x542 ?x56) 0) $x345 $x305)))
 (let ((?x104 (+ (* (- 7) ?x71 ?x71 ?x74 (+ m 6)) (* 9 ?x71 ?x71 (+ m 6) (+ m 6) (+ n 1)) (* 2 ?x74 ?x74 (+ m 6) (+ n 1)))))
 (let ((?x78 (- (- (- 4 (* 18 ?x71)) (* 9 ?x71 (+ n 1))) (* 5 ?x74))))
 (let ((?x81 (+ ?x78 (* 9 (+ n 1)) ?x80)))
 (let ((?x95 (+ (- (* 3 (+ n 1) (+ n 1)) ?x74) (* 3 (+ n 1)))))
 (let ((?x89 (+ (- (+ (* (- 3) ?x71) (* ?x74 (+ n 1))) ?x74) (* 2 (+ n 1)))))
 (let (($x70 (not (= (- (+ (- 6) m 6) (* 6 (+ n 1))) 0))))
 (let (($x108 (or $x70 (not (= ?x81 0)) (not (= ?x89 0)) (not (= ?x95 0)) (not (= (* ?x81 ?x104) 0)))))
 (let ((?x46 (* k k)))
 (let ((?x41 (* 5 k)))
 (let ((?x47 (+ (- (- (- 4 (* 18 c)) (* 9 c n)) ?x41) ?x45 ?x46)))
 (let (($x109 (and (= (- (+ (- 6) m) (* 6 n)) 0) (= ?x47 0) (= (+ (- (+ (* (- 3) c) (* k n)) k) ?x56) 0) (= (+ (- (* 3 n n) k) ?x61) 0) $x108)))
 (rewrite (= $x109 $x288)))))))))))))))))))))))))))))))))))))))
 ))
 (let ((@x111 (asserted $x110)))
 (let ((@x476 (mp (mp @x111 (quant-intro (proof-bind ?x419) (= $x110 $x417)) $x417) (rewrite (= $x417 $x417)) $x417)))
 (let ((@x279 (mp (mp @x476 (quant-intro (proof-bind ?x182) (= $x417 $x246)) $x246) (quant-intro (proof-bind ?x983) (= $x246 $x981)) $x981)))
 (let ((@x715 (mp (mp~ @x279 (sk (~ $x981 $x452)) $x452) (rewrite (= $x452 $x350)) $x350)))
 (let ((@x390 (and-elim @x715 $x386)))
 (let ((@x1078 (unit-resolution ((_ th-lemma arith triangle-eq) (or (not $x386) $x884)) @x390 $x884)))
 (let (($x879 (>= ?x885 4)))
 (let ((@x766 (unit-resolution ((_ th-lemma arith triangle-eq) (or (not $x386) $x879)) @x390 $x879)))
 (let (($x395 (<= ?x207 0)))
 (let ((@x494 (and-elim @x715 $x208)))
 (let ((@x762 (unit-resolution ((_ th-lemma arith triangle-eq) (or (not $x208) $x395)) @x494 $x395)))
 (let (($x939 (>= ?x207 0)))
 (let ((@x716 (unit-resolution ((_ th-lemma arith triangle-eq) (or (not $x208) $x939)) @x494 $x939)))
 (let (($x119 (<= ?x340 (- 6))))
 (let ((@x495 (and-elim @x715 $x357)))
 (let ((@x140 (unit-resolution ((_ th-lemma arith triangle-eq) (or $x367 $x119)) @x495 $x119)))
 (let (($x767 (>= ?x340 (- 6))))
 (let ((@x133 (unit-resolution ((_ th-lemma arith triangle-eq) (or $x367 $x767)) @x495 $x767)))
 (let (($x2167 (<= c!3 2)))
 (let (($x338 (<= ?x319 0)))
 (let ((@x257 (and-elim @x715 $x360)))
 (let ((@x503 (unit-resolution ((_ th-lemma arith triangle-eq) (or (not $x360) $x338)) @x257 $x338)))
 (let (($x359 (>= ?x319 0)))
 (let ((@x346 (unit-resolution ((_ th-lemma arith triangle-eq) (or (not $x360) $x359)) @x257 $x359)))
 (let ((@x2187 ((_ th-lemma arith) (hypothesis (not $x2167)) @x346 @x503 @x133 @x140 @x346 @x503 @x716 @x762 @x766 @x1078 @x716 @x762 @x346 @x503 false)))
 (let ((@x2132 (lemma @x2187 $x2167)))
 (let (($x1537 (<= c!3 1)))
 (let ((@x1554 (hypothesis $x1537)))
 (let (($x976 (<= n!0 3)))
 (let ((@x960 (hypothesis $x976)))
 (let (($x891 (<= n!0 2)))
 (let ((@x1082 (hypothesis $x891)))
 (let (($x1042 (>= c!3 1)))
 (let (($x789 (>= c!3 0)))
 (let (($x890 (>= ?x134 0)))
 (let ((@x474 (lemma ((_ th-lemma arith farkas 1) (hypothesis (not $x890)) false) $x890)))
 (let (($x361 (>= k!2 0)))
 (let ((@x342 (hypothesis (not $x361))))
 (let ((@x167 (lemma ((_ th-lemma arith) @x342 @x503 @x342 @x503 @x342 @x503 false) $x361)))
 (let ((@x575 ((_ th-lemma arith gomory-cut 3/5 1/2 1/5 1/5) @x346 @x167 @x474 @x766 (>= (+ (* 2 ?x130) (* 2 ?x202) (* 4 c!3) k!2) 2))))
 (let (($x576 (>= n!0 (- 1))))
 (let (($x123 (not $x576)))
 (let (($x765 (not $x789)))
 (let ((@x764 (hypothesis $x765)))
 (let (($x194 (>= ?x130 1)))
 (let ((@x586 (hypothesis (not $x194))))
 (let ((@x1080 ((_ th-lemma arith) @x764 @x140 @x586 @x764 @x133 @x140 @x346 @x503 @x716 @x762 @x346 @x503 @x766 @x1078 @x346 @x503 false)))
 (let ((@x275 (unit-resolution (lemma @x1080 (or $x789 $x194)) @x586 $x789)))
 (let (($x570 (>= n!0 0)))
 (let (($x759 (<= k!2 0)))
 (let (($x605 (not $x759)))
 (let ((@x758 (hypothesis $x759)))
 (let ((@x720 ((_ th-lemma arith gomory-cut 3/14 1/2 -9/14 1/14 1/14) @x346 @x167 @x586 @x474 @x766 (>= (+ (* 2 ?x202) (* 2 c!3) k!2) 2))))
 (let ((@x790 (lemma ((_ th-lemma arith farkas 1/3 1 7/18 1/2 1 1/9 1/9 1 1) @x503 @x716 @x758 @x720 @x586 @x474 @x766 @x167 @x758 false) (or $x605 $x194))))
 (let ((@x467 (hypothesis $x789)))
 (let ((@x387 (hypothesis (not $x570))))
 (let ((@x299 (lemma ((_ th-lemma arith) @x387 @x503 @x387 @x467 (hypothesis $x605) @x716 @x762 false) (or $x570 $x765 $x759))))
 (let ((@x424 ((_ th-lemma arith) @x346 @x503 @x133 @x140 @x766 @x1078 (unit-resolution @x299 @x275 (unit-resolution @x790 @x586 $x605) $x570) @x275 @x586 @x346 @x503 @x716 @x762 false)))
 (let ((@x426 (lemma @x424 $x194)))
 (let ((@x579 (hypothesis $x576)))
 (let ((@x433 ((_ th-lemma arith farkas 3/5 3/5 -1/5 2/5 2/5 2/5 2/5 -1/5 1 1 1 1 1 1) @x426 @x764 @x346 @x764 @x579 @x426 @x764 @x575 @x579 @x426 @x764 @x579 @x426 @x764 false)))
 (let ((@x1050 ((_ th-lemma arith) @x133 (unit-resolution (lemma @x433 (or $x123 $x789)) @x764 $x123) @x575 @x346 @x503 @x133 @x140 @x346 @x503 @x766 @x1078 @x766 @x1078 @x346 @x503 @x716 @x762 @x346 @x503 false)))
 (let ((@x1049 (lemma @x1050 $x789)))
 (let ((@x356 (hypothesis (not $x1042))))
 (let ((@x176 ((_ th-lemma arith) @x346 @x503 @x133 @x140 @x766 @x1078 @x467 @x356 @x716 @x762 @x467 @x356 false)))
 (let ((@x908 (unit-resolution (lemma @x176 (or $x1042 $x765)) @x1049 $x1042)))
 (let (($x945 (<= m!1 12)))
 (let ((@x620 (hypothesis $x945)))
 (let ((@x1051 (lemma ((_ th-lemma arith farkas -1/9 1/3 -1/9 -1/3 -1/3 -1/3 -1/3 1) @x140 @x716 @x620 @x426 @x908 @x620 @x140 @x908 false) (not $x945))))
 (let ((@x1058 ((_ th-lemma arith gomory-cut 1/2 1/2) @x133 @x1051 (>= n!0 2))))
 (let ((@x926 ((_ th-lemma arith gcd-test -1/3 -1/3 -1/3 -1/3 1/3 1/3 -5/3 -5/3 1/3 1/3 -1 -1 -1 -1 -1 -1 -1 -1) @x1058 @x1082 @x1058 @x1082 @x716 @x762 @x1058 @x1082 @x346 @x503 @x1058 @x1082 @x1058 @x1082 @x1058 @x1082 @x1058 @x1082 false)))
 (let ((@x853 (lemma @x926 (not $x891))))
 (let ((@x1257 (lemma ((_ th-lemma arith farkas -1 -35 255 -15 24 1 1 1 1 1) @x1078 @x503 @x853 @x762 @x960 @x503 @x853 @x346 @x853 @x960 false) (not $x976))))
 (let ((@x1573 ((_ th-lemma arith) @x346 @x503 @x426 @x1257 @x1554 @x426 @x1257 @x1554 @x426 @x1257 @x1554 @x426 @x1257 @x1554 @x426 @x1257 @x1554 @x426 @x1257 @x1554 @x346 @x503 @x426 @x1257 @x1554 @x716 @x762 @x426 @x1257 @x1554 @x426 @x1257 @x1554 @x426 @x1257 @x1554 @x426 @x1257 @x1554 @x426 @x1257 @x1554 @x716 @x762 @x426 @x1257 @x1554 @x346 @x503 @x426 @x1257 @x1554 @x426 @x1257 @x1554 @x426 @x1257 @x1554 @x766 @x1078 false)))
 (let ((@x1609 (lemma @x1573 (not $x1537))))
 (let (($x354 (<= ?x498 13)))
 (let ((@x371 ((_ th-lemma arith) (hypothesis (not $x354)) @x133 @x140 @x346 @x503 @x346 @x503 @x716 @x762 @x346 @x503 @x766 @x1078 @x133 @x140 @x716 @x762 false)))
 (let ((@x882 (lemma @x371 $x354)))
 (let (($x462 (>= ?x498 13)))
 (let ((@x923 (hypothesis (not $x462))))
 (let (($x326 (<= ?x141 0)))
 (let (($x856 (>= c!3 23)))
 (let (($x931 (not $x856)))
 (let ((?x1456 (+ (* 41 (* n!0 c!3 k!2 m!1)) (* 56 ?x134) (* (- 14) ?x136) (* 35 n!0) (* 21 (* n!0 k!2 k!2 m!1)) ?x355 ?x188 ?x294 (* 7 (* n!0 k!2 m!1)) (* 7 (* n!0 m!1 m!1)) (* (- 7) ?x191) (* 7 ?x202) (* 7 (* n!0 c!3 k!2 m!1 m!1)) (* 7 (* n!0 k!2 k!2 m!1 m!1)) (* 7 (* n!0 c!3 c!3 m!1 m!1)) (* 56 (* n!0 k!2 k!2)) (* 21 (* n!0 c!3 c!3 m!1)) ?x399 (* (- 49) c!3) ?x414 ?x451 (* 112 (* n!0 c!3 k!2)) (* 56 (* n!0 c!3 c!3)) (* 112 ?x510) ?x347 (* (- 140) k!2) (* (- 28) m!1) (* 14 ?x809) (* 7 ?x810) (* (- 7) ?x816) (* 14 ?x837) (* 27 ?x864) (* (- 42) ?x876) (* 56 ?x918) (* 14 ?x1053))))
 (let (($x905 (>= ?x202 0)))
 (let ((@x907 (hypothesis (not $x905))))
 (let ((@x888 ((_ th-lemma arith farkas 1 1 1 1) @x907 (lemma ((_ th-lemma arith farkas -1 9 18 2 -3 1 1) @x1078 @x426 @x1049 @x167 @x503 @x167 @x758 false) $x605) @x907 @x346 false)))
 (let ((@x937 (lemma @x888 $x905)))
 (let ((?x129 (* n!0 c!3 k!2 m!1)))
 (let (($x896 (>= ?x129 0)))
 (let ((@x1086 ((_ th-lemma arith farkas 1 1 1/3 1/3 1/6 1/6) @x1051 @x133 @x503 (hypothesis (<= k!2 4)) @x1051 @x133 false)))
 (let ((@x909 ((_ th-lemma arith farkas 1 1 1 1 1 1) (hypothesis (not $x896)) @x1051 (lemma @x1086 (not (<= k!2 4))) @x133 @x1051 @x1049 false)))
 (let ((@x1491 ((_ th-lemma arith gomory-cut 6/7 1/5 1/5 1/5 1/5 1/5 16/35 16/35 16/35 16/35 16/35 16/35 1/5 1/5 1/5 1/5 1/5 18/35 18/35 18/35 18/35 18/35 18/35 24/35 24/35 24/35 24/35 24/35 24/35 24/35 33/35 33/35 33/35 33/35 33/35 33/35 33/35 33/35 33/35 2/5 2/5 2/5 2/5 2/5 2/5 18/35 18/35 18/35 24/35 24/35 24/35 24/35 24/35 12/35 24/35 24/35 24/35 24/35 18/35 18/35 6/7 6/7 6/7 6/7 6/7 6/7 16/35 16/35 16/35 16/35 16/35 1/35 1/35 6/7 6/7 6/7 6/7 6/7 12/35 6/35 18/35 18/35 -6/7 2/7 2/7 2/7 2/7 2/7 4/7 4/7 4/7 4/7 4/7 4/7 2/7 2/7 2/7 4/7 4/7 4/7 4/7 4/7 4/7 2/7 2/7 4/7 4/7 4/7 4/7 4/7 2/7 2/7 6/7 6/7) (lemma @x909 $x896) @x503 @x937 @x1257 @x1257 @x140 @x1257 @x140 @x1257 @x503 @x937 @x1257 @x503 @x937 @x1257 @x1257 @x140 @x1257 @x140 @x1257 @x503 @x937 @x1257 @x1257 @x140 @x503 @x937 @x1257 @x1257 @x1049 @x1257 @x140 @x1257 @x503 @x937 @x1257 @x1257 @x1257 @x140 @x1257 @x140 @x1049 @x503 @x937 @x1257 @x1257 @x1257 @x140 @x503 @x937 @x1257 @x1257 @x1049 @x1257 @x1049 @x503 @x937 @x1257 @x1257 @x140 @x1257 @x140 @x1049 @x503 @x937 @x1257 @x503 @x937 @x1257 @x1257 @x140 (hypothesis (not $x326)) @x923 @x1257 @x1257 @x140 @x766 @x1257 @x346 @x1257 @x133 @x716 @x923 @x503 @x937 @x1257 @x1257 @x140 @x1257 @x140 @x1257 @x503 @x937 @x1257 @x1257 @x1257 @x140 @x1257 @x140 @x1049 @x503 @x937 @x1257 @x1257 @x140 @x503 @x937 @x1257 @x1257 @x140 @x1257 @x140 @x426 @x1257 (>= ?x1456 3612589))))
 (let ((@x1507 ((_ th-lemma arith) @x1491 (hypothesis $x931) @x346 @x503 @x133 @x140 @x346 @x503 @x716 @x762 @x766 @x1078 @x346 @x503 @x716 @x762 @x766 @x1078 @x133 @x140 @x133 @x140 @x766 @x1078 @x346 @x503 @x716 @x762 @x346 @x503 false)))
 (let ((@x2225 (unit-resolution (lemma @x1507 (or $x856 $x326 $x462)) (unit-resolution ((_ th-lemma arith farkas 1 1) (or (not $x2167) $x931)) @x2132 $x931) (or $x326 $x462))))
 (let (($x317 (>= ?x141 0)))
 (let ((@x972 (hypothesis (not $x317))))
 (let ((@x1089 ((_ th-lemma arith) @x972 @x923 @x1049 @x346 @x503 @x133 @x140 @x766 @x1078 @x346 @x503 @x716 @x762 @x346 @x503 false)))
 (let ((@x1091 ((_ th-lemma arith farkas 1 1 1) @x972 @x882 (unit-resolution (lemma @x1089 (or $x462 $x317)) @x972 $x462) false)))
 (let ((@x2233 ((_ th-lemma arith) @x1609 @x2132 @x1609 @x2132 @x1609 @x2132 @x133 @x140 @x346 @x503 @x346 @x503 @x1609 @x2132 @x1609 @x2132 @x1609 @x2132 @x1609 @x2132 @x1609 @x2132 @x1609 @x2132 @x1609 @x2132 @x1609 @x2132 @x1609 @x2132 @x1609 @x2132 @x1609 @x2132 @x346 @x503 @x1609 @x2132 @x1609 @x2132 @x766 @x1078 @x1609 @x2132 @x716 @x762 @x346 @x503 @x346 @x503 @x1609 @x2132 @x1609 @x2132 @x1609 @x2132 @x1609 @x2132 @x1609 @x2132 @x133 @x140 @x1609 @x2132 @x1609 @x2132 @x716 @x762 @x766 @x1078 @x1609 @x2132 @x1609 @x2132 @x1609 @x2132 @x1609 @x2132 @x1609 @x2132 @x1609 @x2132 @x1609 @x2132 @x1609 @x2132 @x1609 @x2132 @x1609 @x2132 (lemma @x1091 $x317) @x923 (unit-resolution @x2225 @x923 $x326) @x923 @x1609 @x2132 @x133 @x140 @x716 @x762 @x766 @x1078 false)))
 ((_ th-lemma arith) @x1609 @x2132 @x1609 @x2132 @x1609 @x2132 @x1609 @x2132 @x346 @x503 @x766 @x1078 @x716 @x762 @x1609 @x2132 @x133 @x140 @x1609 @x2132 @x1609 @x2132 @x1609 @x2132 @x766 @x1078 (lemma @x2233 $x462) @x882 @x1609 @x2132 @x1609 @x2132 @x1609 @x2132 @x1609 @x2132 @x1609 @x2132 @x1609 @x2132 @x1609 @x2132 @x766 @x1078 @x1609 @x2132 @x1609 @x2132 @x1609 @x2132 @x1609 @x2132 @x1609 @x2132 @x1609 @x2132 @x1609 @x2132 @x1609 @x2132 @x133 @x140 @x716 @x762 @x766 @x1078 false))))))))))))))))))))))))))))))))))))))))))))))))))))))))))))))))))))))))))))))))))))))))))))))))))))))))))))))))))))))))))))))))))))))))))))))))))))))))))))))))))))))))))))))))))))))))))))))))))

(:added-eqs                 95
 :arith-assert-diseq        70
 :arith-assert-lower        1440
 :arith-assert-upper        428
 :arith-bound-prop          1
 :arith-branch-var          35
 :arith-conflicts           49
 :arith-eq-adapter          13
 :arith-fixed-eqs           133
 :arith-gcd-tests           212
 :arith-gomory-cuts         26
 :arith-grobner             41
 :arith-ineq-splits         35
 :arith-max-min             6916
 :arith-nonlinear-bounds    752
 :arith-nonlinear-horner    342
 :arith-num-rows            20
 :arith-offset-eqs          13
 :arith-patches             83
 :arith-patches_succ        14
 :arith-pivots              932
 :arith-pseudo-nonlinear    177
 :arith-row-summations      3198
 :arith-tableau-max-columns 105
 :arith-tableau-max-rows    20
 :conflicts                 53
 :decisions                 348
 :del-clause                51
 :final-checks              175
 :max-memory                4.23
 :memory                    3.37
 :minimized-lits            7
 :mk-bool-var               310
 :mk-clause                 75
 :num-allocs                4756745
 :num-checks                1
 :propagations              185
 :rlimit-count              284746
 :time                      0.08
 :total-time                0.09)
